1 6 75 5
0 140
0 140
0 140
0 140
0 140
 0 40 40 0  0 0 0
 1 22 22 0 18 2 3 5 10 20
 2 36 26 0 26 2 3 5 10 20
 3 21 45 0 11 1 5 1 2 4 8 16
 4 45 35 0 30 5 1 31
 5 55 20 0 21 2 3 5 10 20
 6 33 34 0 19 2 3 5 10 20
 7 50 50 0 15 1 5 1 2 4 8 16
 8 55 45 0 16 2 3 5 10 20
 9 26 59 0 29 5 1 31
10 40 66 0 26 2 3 5 10 20
11 55 65 0 37 5 1 31
12 35 51 0 16 2 3 5 10 20
13 62 35 0 12 1 5 1 2 4 8 16
14 62 57 0 31 5 1 31
15 62 24 0  8 1 5 1 2 4 8 16
16 21 36 0 19 2 3 5 10 20
17 33 44 0 20 2 3 5 10 20
18  9 56 0 13 1 5 1 2 4 8 16
19 62 48 0 15 1 5 1 2 4 8 16
20 66 14 0 22 2 3 5 10 20
21 44 13 0 28 5 1 31
22 26 13 0 12 1 5 1 2 4 8 16
23 11 28 0  6 1 5 1 2 4 8 16
24  7 43 0 27 2 3 5 10 20
25 17 64 0 14 1 5 1 2 4 8 16
26 41 46 0 18 2 3 5 10 20
27 55 34 0 17 2 3 5 10 20
28 35 16 0 29 5 1 31
29 52 26 0 13 1 5 1 2 4 8 16
30 43 26 0 22 2 3 5 10 20
31 31 76 0 25 2 3 5 10 20
32 22 53 0 28 5 1 31
33 26 29 0 27 2 3 5 10 20
34 50 40 0 19 2 3 5 10 20
35 55 50 0 10 1 5 1 2 4 8 16
36 54 10 0 12 1 5 1 2 4 8 16
37 60 15 0 14 1 5 1 2 4 8 16
38 47 66 0 24 2 3 5 10 20
39 30 60 0 16 2 3 5 10 20
40 30 50 0 33 5 1 31
41 12 17 0 15 1 5 1 2 4 8 16
42 15 14 0 11 1 5 1 2 4 8 16
43 16 19 0 18 2 3 5 10 20
44 21 48 0 17 2 3 5 10 20
45 50 30 0 21 2 3 5 10 20
46 51 42 0 27 2 3 5 10 20
47 50 15 0 19 2 3 5 10 20
48 48 21 0 20 2 3 5 10 20
49 12 38 0  5 1 5 1 2 4 8 16
50 15 56 0 22 2 3 5 10 20
51 29 39 0 12 1 5 1 2 4 8 16
52 54 38 0 19 2 3 5 10 20
53 55 57 0 22 2 3 5 10 20
54 67 41 0 16 2 3 5 10 20
55 10 70 0  7 1 5 1 2 4 8 16
56  6 25 0 26 2 3 5 10 20
57 65 27 0 14 1 5 1 2 4 8 16
58 40 60 0 21 2 3 5 10 20
59 70 64 0 24 2 3 5 10 20
60 64  4 0 13 1 5 1 2 4 8 16
61 36  6 0 15 1 5 1 2 4 8 16
62 30 20 0 18 2 3 5 10 20
63 20 30 0 11 1 5 1 2 4 8 16
64 15  5 0 28 5 1 31
65 50 70 0  9 1 5 1 2 4 8 16
66 57 72 0 37 5 1 31
67 45 42 0 30 5 1 31
68 38 33 0 10 1 5 1 2 4 8 16
69 50  4 0  8 1 5 1 2 4 8 16
70 66  8 0 11 1 5 1 2 4 8 16
71 59  5 0  3 1 5 1 2 4 8 16
72 35 60 0  1 1 5 1 2 4 8 16
73 27 24 0  6 1 5 1 2 4 8 16
74 40 20 0 10 1 5 1 2 4 8 16
75 40 37 0 20 2 3 5 10 20
